certificates/rado_a14_c282_N27.drat
20 -26 -27 0
-21 25 -20 0
-26 -27 0
d 20 -26 -27 0
-20 -14 21 0
21 26 0
d 14 21 26 0
25 -21 0
d -21 -20 25 0
-21 -27 0
d -15 -21 -27 0
-27 0
20 -21 0
-21 0
9 0
15 0
26 0
-20 0
18 0
22 0
25 0
23 0
8 0
19 0
0
